100
    1    50    50
    2    18    18
    3    26    26
    4     1     1
    5    26    26
    6    18    18
    7    29    29
    8    44    44
    9    14    14
   10    46    46
   11    18    18
   12    15    15
   13     1     1
   14    16    16
   15    30    30
   16     2     2
   17    43    43
   18    47    47
   19    16    16
   20     3     3
   21    22    22
   22    21    21
   23    47    47
   24    49    49
   25    10    10
   26     9     9
   27    32    32
   28    20    20
   29    33    33
   30    31    31
   31    19    19
   32    44    44
   33    43    43
   34    32    32
   35    12    12
   36    24    24
   37     1     1
   38    23    23
   39    24    24
   40     8     8
   41     7     7
   42    50    50
   43    20    20
   44    11    11
   45    46    46
   46    42    42
   47    25    25
   48    38    38
   49     1     1
   50     1     1
   51    42    42
   52    43    43
   53     8     8
   54    12    12
   55    38    38
   56     8     8
   57    38    38
   58    48    48
   59    25    25
   60    37    37
   61    50    50
   62    33    33
   63     6     6
   64    38    38
   65    16    16
   66     2     2
   67    25    25
   68    19    19
   69     4     4
   70    38    38
   71    41    41
   72    21    21
   73    22    22
   74    21    21
   75    31    31
   76    35    35
   77    44    44
   78    11    11
   79    39    39
   80    12    12
   81    27    27
   82    14    14
   83    38    38
   84    44    44
   85     6     6
   86    36    36
   87    40    40
   88    47    47
   89     3     3
   90    37    37
   91     9     9
   92    23    23
   93     2     2
   94    25    25
   95    40    40
   96    19    19
   97    19    19
   98    25    25
   99    12    12
  100    14    14
831
